p wcnf 180 270 271 
1 -113 48 0 
1 -62 71 0 
1 117 -16 0 
1 -34 76 0 
1 58 154 0 
1 -94 -131 0 
1 -155 94 0 
1 -55 167 0 
1 149 153 0 
1 4 105 0 
1 -6 -20 0 
1 -27 -158 0 
1 7 29 0 
1 -61 -89 0 
1 144 14 0 
1 -85 138 0 
1 -100 -9 0 
1 3 -162 0 
1 45 -67 0 
1 -134 -169 0 
1 139 -47 0 
1 -32 144 0 
1 -31 -22 0 
1 100 -166 0 
1 121 -118 0 
1 176 7 0 
1 127 -117 0 
1 -120 -110 0 
1 18 -113 0 
1 -103 105 0 
1 -2 -11 0 
1 -102 14 0 
1 141 -139 0 
1 -108 61 0 
1 81 -138 0 
1 116 86 0 
1 -128 -151 0 
1 -168 -126 0 
1 116 -62 0 
1 -110 -18 0 
1 -146 -128 0 
1 167 -22 0 
1 -18 92 0 
1 -2 71 0 
1 133 -54 0 
1 -38 -113 0 
1 -79 -44 0 
1 -172 149 0 
1 -80 164 0 
1 142 141 0 
1 45 129 0 
1 149 141 0 
1 -70 131 0 
1 -8 -80 0 
1 5 -68 0 
1 -134 -59 0 
1 -113 -61 0 
1 -59 141 0 
1 -102 -89 0 
1 -168 147 0 
1 -127 156 0 
1 -35 -149 0 
1 -58 19 0 
1 168 80 0 
1 -178 73 0 
1 -6 94 0 
1 -171 -96 0 
1 -142 -53 0 
1 167 -134 0 
1 39 141 0 
1 -56 137 0 
1 156 -103 0 
1 120 -4 0 
1 44 -77 0 
1 -139 -112 0 
1 132 -63 0 
1 -55 -171 0 
1 179 -117 0 
1 101 -98 0 
1 -27 -162 0 
1 -33 166 0 
1 -131 -105 0 
1 -43 124 0 
1 69 141 0 
1 -50 16 0 
1 176 108 0 
1 -54 139 0 
1 64 47 0 
1 -119 55 0 
1 -25 -171 0 
1 155 -129 0 
1 9 133 0 
1 -35 58 0 
1 134 119 0 
1 -165 -51 0 
1 32 -148 0 
1 146 -6 0 
1 92 -49 0 
1 -180 142 0 
1 109 -66 0 
1 30 -149 0 
1 98 56 0 
1 120 168 0 
1 163 -41 0 
1 -150 -43 0 
1 97 102 0 
1 80 49 0 
1 -143 -72 0 
1 14 123 0 
1 -110 136 0 
1 20 -165 0 
1 -38 92 0 
1 29 156 0 
1 -86 6 0 
1 -70 -171 0 
1 -53 103 0 
1 19 144 0 
1 95 150 0 
1 -54 40 0 
1 -13 -145 0 
1 -76 19 0 
1 -55 -113 0 
1 -124 80 0 
1 -173 32 0 
1 165 3 0 
1 127 -70 0 
1 -132 179 0 
1 -68 123 0 
1 4 -161 0 
1 -95 166 0 
1 -12 75 0 
1 116 -43 0 
1 123 177 0 
1 75 51 0 
1 179 59 0 
1 -53 171 0 
1 -102 91 0 
1 -154 37 0 
1 112 20 0 
1 18 171 0 
1 86 -79 0 
1 -18 113 0 
1 -50 -83 0 
1 75 -122 0 
1 -50 41 0 
1 26 80 0 
1 81 180 0 
1 -9 -56 0 
1 -50 -42 0 
1 127 -140 0 
1 -121 -83 0 
1 -176 -36 0 
1 -132 65 0 
1 -140 4 0 
1 67 -147 0 
1 97 90 0 
1 -129 -21 0 
1 -10 -99 0 
1 122 -42 0 
1 -1 25 0 
1 -6 72 0 
1 -141 -63 0 
1 9 -28 0 
1 121 -104 0 
1 147 -58 0 
1 168 88 0 
1 128 -59 0 
1 41 148 0 
1 89 -54 0 
1 87 98 0 
1 -40 105 0 
1 -141 85 0 
1 110 -22 0 
1 81 112 0 
1 -89 80 0 
1 -96 4 0 
1 59 -21 0 
1 150 66 0 
1 132 9 0 
1 -15 61 0 
1 36 40 0 
1 -1 43 0 
1 -115 52 0 
1 50 102 0 
1 98 110 0 
1 162 7 0 
1 12 45 0 
1 22 -100 0 
1 -30 137 0 
1 -10 -54 0 
1 -37 -125 0 
1 -114 -96 0 
1 -149 -159 0 
1 -151 -63 0 
1 -164 -135 0 
1 -33 92 0 
1 66 -114 0 
1 99 132 0 
1 -40 -152 0 
1 -180 58 0 
1 90 -144 0 
1 -118 163 0 
1 128 167 0 
1 -179 12 0 
1 66 -171 0 
1 -135 74 0 
1 -1 -33 0 
1 78 -88 0 
1 -137 -147 0 
1 -151 -175 0 
1 -95 -128 0 
1 142 -26 0 
1 -145 170 0 
1 -8 174 0 
1 -85 -19 0 
1 -78 125 0 
1 23 -172 0 
1 13 152 0 
1 107 -90 0 
1 -47 -1 0 
1 121 129 0 
1 25 -133 0 
1 -177 -101 0 
1 -104 -169 0 
1 73 -56 0 
1 177 -49 0 
1 12 -21 0 
1 -130 -160 0 
1 115 32 0 
1 151 149 0 
1 -97 -136 0 
1 173 -91 0 
1 36 123 0 
1 45 -91 0 
1 7 -17 0 
1 -49 -57 0 
1 -157 175 0 
1 -99 -5 0 
1 -165 179 0 
1 3 37 0 
1 151 -110 0 
1 -168 -179 0 
1 97 67 0 
1 -10 -84 0 
1 -131 112 0 
1 -89 -178 0 
1 -1 -61 0 
1 -94 -172 0 
1 -30 -41 0 
1 -36 -16 0 
1 144 12 0 
1 -138 -98 0 
1 172 -43 0 
1 84 139 0 
1 -13 19 0 
1 -14 50 0 
1 -26 49 0 
1 -180 61 0 
1 77 -146 0 
1 -133 -102 0 
1 28 -100 0 
1 28 -5 0 
1 -86 67 0 
1 -136 -41 0 
1 -1 -21 0 
1 30 7 0 
1 25 124 0 
1 106 19 0 
1 92 46 0 
1 107 149 0 
